NAME : LPS-n30-m308
COMMENT : (Lartu-Peter-Santi Plot, instance 11108 out of 39200. 30 customers.)
TYPE : CVRP
DIMENSION : 30
EDGE_WEIGHT_TYPE : EUC_2D
CAPACITY : 105
NODE_COORD_SECTION
 1 28 36
 2 77 52
 3 18 42
 4 20 59
 5 7 98
 6 42 16
 7 66 51
 8 28 75
 9 58 45
 10 47 16
 11 31 80
 12 100 99
 13 42 23
 14 63 97
 15 42 4
 16 82 22
 17 79 87
 18 73 20
 19 82 79
 20 81 85
 21 12 69
 22 38 14
 23 69 6
 24 75 43
 25 88 6
 26 17 89
 27 59 42
 28 51 27
 29 8 52
 30 9 72
DEMAND_SECTION
1 0
2 5
3 63
4 40
5 67
6 5
7 88
8 6
9 78
10 98
11 4
12 77
13 2
14 103
15 50
16 78
17 56
18 80
19 13
20 9
21 40
22 36
23 79
24 18
25 45
26 63
27 71
28 24
29 3
30 81
DEPOT_SECTION
 1
 -1
EOF
